(set-logic ALL)
(set-option :produce-models true)
(declare-sort BoundSet 0)
(declare-sort UnboundSet 0)
(set-option :finite-model-find true)
(declare-fun IsBadForEnvironment (BoundSet) Bool)
(declare-fun WillBan (BoundSet BoundSet) Bool)
(assert (not (=> (exists ((a BoundSet)) (IsBadForEnvironment a)) (exists ((a BoundSet)) (exists ((c BoundSet)) (WillBan c a))))))
(check-sat)
(get-model)